db/data/2862556031448636410623236171337318751.z3.out
-------------------
2500.120096258
